1111100 AB
338 353 374 394 409 416 424 433 452 461 471 486 496 505 525 532 548 564 577 595 605 622 653 687 695 718 735 744 759 775 791 808 816 833 850 857 872 897 907 918 942 962 987 1015 1040 1051 1078 1093 1108 1126 1137 1148 1173 1198 1232 1248 1271 1306 1342 1378 1414 14
1111100 BA
355 370 391 411 428 436 445 454 473 482 492 507 517 526 545 568 584 597 632 666 673 689 707 715 738 755 764 779 795 811 828 836 846 870 877 892 918 939 963 983 1008 1026 1045 1061 1072 1099 1114 1123 1129 1146 1168 1193 1206 1218 1252 1267 1288 1323 1359 1395 1431 31
0000011 AB
338 374 410 456 481 505 539 554 586 627 660 676 701 750 791 840 864 886 911 929 961 978 1004 1019 1069 1118 1159 1184 1200 1227 1275 1317 1332 1367 1412 17
0000011 BA
355 391 428 476 501 525 559 606 634 647 680 721 770 811 839 860 884 906 931 949 981 998 1039 1089 1138 1160 1179 1204 1247 1292 1310 1334 1349 1384 1429 34
